DATASET = "thpack3";
INSTANCE = "029";

WIDTH = 233;
HEIGHT = 220;
LENGTH = 587;

NO_OF_SHAPES = 8;
size = [|
  91,58,57 |
  92,78,53 |
  112,48,28 |
  78,47,26 |
  41,40,28 |
  57,47,32 |
  54,47,40 |
  85,80,25 |
|];

verticality = [|
  1,1,1 |
  1,1,1 |
  0,1,1 |
  0,1,1 |
  1,1,1 |
  1,1,1 |
  1,1,1 |
  0,0,1 |
|];

box_count = [
  20,
  21,
  24,
  27,
  28,
  24,
  30,
  20,
];
